<?xml version = "1.0" encoding="UTF-8" standalone="yes"?>
<CPLEXSolution version="1.2">
 <header
   problemName="mknap01_6_cut_n2"
   objectiveValue="6947.1193589202903"
   solutionTypeValue="1"
   solutionTypeString="basic"
   solutionStatusValue="1"
   solutionStatusString="optimal"
   solutionMethodString="dual"
   primalFeasible="1"
   dualFeasible="1"
   simplexIterations="1"
   writeLevel="1"/>
 <quality
   epRHS="9.9999999999999995e-07"
   epOpt="9.9999999999999995e-07"
   maxPrimalInfeas="0"
   maxDualInfeas="0"
   maxPrimalResidual="4.9071857688431919e-14"
   maxDualResidual="7.9580786405131221e-13"
   maxX="1"
   maxPi="4532.6655419654116"
   maxSlack="238.45170814002529"
   maxRedCost="6703.6634331505611"
   kappa="6.243813714547648"/>
 <linearConstraints>
  <constraint name="c0" index="0" status="BS" slack="82.757767468016141" dual="-0"/>
  <constraint name="c1" index="1" status="BS" slack="57.32419513566704" dual="-0"/>
  <constraint name="c2" index="2" status="BS" slack="238.45170814002529" dual="-0"/>
  <constraint name="c3" index="3" status="BS" slack="171.475186278645" dual="-0"/>
  <constraint name="c4" index="4" status="BS" slack="168.78237030788679" dual="-0"/>
  <constraint name="cut_1" index="5" status="LL" slack="0" dual="4532.6655419654116"/>
  <constraint name="cut_2" index="6" status="LL" slack="0" dual="2309.0763390974221"/>
 </linearConstraints>
 <variables>
  <variable name="x0" index="0" status="LL" value="0" reducedCost="-4079.745255166592"/>
  <variable name="x1" index="1" status="UL" value="1" reducedCost="1125"/>
  <variable name="x2" index="2" status="LL" value="0" reducedCost="-3445.2214255588306"/>
  <variable name="x3" index="3" status="LL" value="0" reducedCost="-3572.1864192323897"/>
  <variable name="x4" index="4" status="BS" value="0.84207788556164598" reducedCost="0"/>
  <variable name="x5" index="5" status="LL" value="0" reducedCost="-2380.6963306621619"/>
  <variable name="x6" index="6" status="LL" value="0" reducedCost="-4310.2589624630909"/>
  <variable name="x7" index="7" status="LL" value="0" reducedCost="-2847.9536060733831"/>
  <variable name="x8" index="8" status="LL" value="0" reducedCost="-1193.0396457191039"/>
  <variable name="x9" index="9" status="LL" value="0" reducedCost="-5442.3947701391753"/>
  <variable name="x10" index="10" status="LL" value="0" reducedCost="-3514.4681568958185"/>
  <variable name="x11" index="11" status="LL" value="0" reducedCost="-1257.2855335301533"/>
  <variable name="x12" index="12" status="LL" value="0" reducedCost="-2180.6296921130279"/>
  <variable name="x13" index="13" status="LL" value="0" reducedCost="-4398.2846900042132"/>
  <variable name="x14" index="14" status="LL" value="0" reducedCost="-3008.0021088148419"/>
  <variable name="x15" index="15" status="BS" value="0.65182061015043036" reducedCost="0"/>
  <variable name="x16" index="16" status="LL" value="0" reducedCost="-1282.0278363559646"/>
  <variable name="x17" index="17" status="UL" value="1" reducedCost="115"/>
  <variable name="x18" index="18" status="LL" value="0" reducedCost="-4119.8937157317541"/>
  <variable name="x19" index="19" status="LL" value="0" reducedCost="-6703.6634331505611"/>
  <variable name="x20" index="20" status="UL" value="1" reducedCost="631"/>
  <variable name="x21" index="21" status="LL" value="0" reducedCost="-3409.1463517503116"/>
  <variable name="x22" index="22" status="LL" value="0" reducedCost="-5104.5153943483701"/>
  <variable name="x23" index="23" status="LL" value="0" reducedCost="-3166.0953184310388"/>
  <variable name="x24" index="24" status="LL" value="0" reducedCost="-4809.8996204133218"/>
  <variable name="x25" index="25" status="LL" value="0" reducedCost="-4007.7726697595908"/>
  <variable name="x26" index="26" status="UL" value="1" reducedCost="113.0801349641504"/>
  <variable name="x27" index="27" status="LL" value="0" reducedCost="-2849.4833403627104"/>
  <variable name="x28" index="28" status="LL" value="0" reducedCost="-827.96415014761556"/>
  <variable name="x29" index="29" status="LL" value="0" reducedCost="-4236.9439055250905"/>
  <variable name="x30" index="30" status="LL" value="0" reducedCost="-757.56010122311136"/>
  <variable name="x31" index="31" status="LL" value="0" reducedCost="-4946.8367777309086"/>
  <variable name="x32" index="32" status="UL" value="1" reducedCost="316"/>
  <variable name="x33" index="33" status="LL" value="0" reducedCost="-2418.7001265288854"/>
  <variable name="x34" index="34" status="LL" value="0" reducedCost="-5207.68156895824"/>
  <variable name="x35" index="35" status="LL" value="0" reducedCost="-2156.0662167861615"/>
  <variable name="x36" index="36" status="LL" value="0" reducedCost="-2551.3226486714411"/>
  <variable name="x37" index="37" status="LL" value="0" reducedCost="-3628.1079713201152"/>
  <variable name="x38" index="38" status="LL" value="0" reducedCost="-6383.6954871362213"/>
 </variables>
 <objectiveValues>
  <objective index="0" name="" value="6947.1193589202903"/>
 </objectiveValues>
</CPLEXSolution>
